*SENSE:Minimize
NAME          MODEL
ROWS
 N  OBJ
 L  C0000000
 L  C0000001
 L  C0000002
 L  C0000003
 L  C0000004
 L  C0000005
 L  C0000006
 L  C0000007
 L  C0000008
 L  C0000009
 L  C0000010
 L  C0000011
 L  C0000012
 L  C0000013
 L  C0000014
 L  C0000015
 L  C0000016
 L  C0000017
 L  C0000018
 L  C0000019
 L  C0000020
 L  C0000021
 L  C0000022
 L  C0000023
 L  C0000024
 L  C0000025
 L  C0000026
 L  C0000027
 L  C0000028
 L  C0000029
 L  C0000030
 L  C0000031
 L  C0000032
 L  C0000033
 L  C0000034
 L  C0000035
 L  C0000036
 L  C0000037
 L  C0000038
 L  C0000039
 L  C0000040
 L  C0000041
 L  C0000042
 L  C0000043
 L  C0000044
 L  C0000045
 L  C0000046
 L  C0000047
 L  C0000048
 L  C0000049
 L  C0000050
 L  C0000051
 L  C0000052
 L  C0000053
 L  C0000054
 L  C0000055
 L  C0000056
 L  C0000057
 L  C0000058
 L  C0000059
 L  C0000060
 L  C0000061
 E  C0000062
COLUMNS
    X0000000  C0000062   1.000000000000e+00
    X0000000  OBJ        1.000000000000e+00
    X0000001  C0000000  -1.000000000000e+00
    X0000001  C0000001  -1.000000000000e+00
    X0000001  OBJ        1.000000000000e+00
    X0000002  C0000002  -1.000000000000e+00
    X0000002  C0000003  -1.000000000000e+00
    X0000002  OBJ        1.000000000000e+00
    X0000003  C0000004  -1.000000000000e+00
    X0000003  C0000005  -1.000000000000e+00
    X0000003  OBJ        1.000000000000e+00
    X0000004  C0000006  -1.000000000000e+00
    X0000004  C0000007  -1.000000000000e+00
    X0000004  OBJ        1.000000000000e+00
    X0000005  C0000008  -1.000000000000e+00
    X0000005  C0000009  -1.000000000000e+00
    X0000005  OBJ        1.000000000000e+00
    X0000006  C0000010  -1.000000000000e+00
    X0000006  C0000011  -1.000000000000e+00
    X0000006  OBJ        1.000000000000e+00
    X0000007  C0000012  -1.000000000000e+00
    X0000007  C0000013  -1.000000000000e+00
    X0000007  OBJ        1.000000000000e+00
    X0000008  C0000014  -1.000000000000e+00
    X0000008  C0000015  -1.000000000000e+00
    X0000008  OBJ        1.000000000000e+00
    X0000009  C0000016  -1.000000000000e+00
    X0000009  C0000017  -1.000000000000e+00
    X0000009  OBJ        1.000000000000e+00
    X0000010  C0000018  -1.000000000000e+00
    X0000010  C0000019  -1.000000000000e+00
    X0000010  OBJ        1.000000000000e+00
    X0000011  C0000020  -1.000000000000e+00
    X0000011  C0000021  -1.000000000000e+00
    X0000011  OBJ        1.000000000000e+00
    X0000012  C0000022  -1.000000000000e+00
    X0000012  C0000023  -1.000000000000e+00
    X0000012  OBJ        1.000000000000e+00
    X0000013  C0000024  -1.000000000000e+00
    X0000013  C0000025  -1.000000000000e+00
    X0000013  OBJ        1.000000000000e+00
    X0000014  C0000026  -1.000000000000e+00
    X0000014  C0000027  -1.000000000000e+00
    X0000014  OBJ        1.000000000000e+00
    X0000015  C0000028  -1.000000000000e+00
    X0000015  C0000029  -1.000000000000e+00
    X0000015  OBJ        1.000000000000e+00
    X0000016  C0000030  -1.000000000000e+00
    X0000016  C0000031  -1.000000000000e+00
    X0000016  OBJ        1.000000000000e+00
    X0000017  C0000032  -1.000000000000e+00
    X0000017  C0000033  -1.000000000000e+00
    X0000017  OBJ        1.000000000000e+00
    X0000018  C0000034  -1.000000000000e+00
    X0000018  C0000035  -1.000000000000e+00
    X0000018  OBJ        1.000000000000e+00
    X0000019  C0000036  -1.000000000000e+00
    X0000019  C0000037  -1.000000000000e+00
    X0000019  OBJ        1.000000000000e+00
    X0000020  C0000038  -1.000000000000e+00
    X0000020  C0000039  -1.000000000000e+00
    X0000020  OBJ        1.000000000000e+00
    X0000021  C0000040  -1.000000000000e+00
    X0000021  C0000041  -1.000000000000e+00
    X0000021  OBJ        1.000000000000e+00
    X0000022  C0000042  -1.000000000000e+00
    X0000022  C0000043  -1.000000000000e+00
    X0000022  OBJ        1.000000000000e+00
    X0000023  C0000044  -1.000000000000e+00
    X0000023  C0000045  -1.000000000000e+00
    X0000023  OBJ        1.000000000000e+00
    X0000024  C0000046  -1.000000000000e+00
    X0000024  C0000047  -1.000000000000e+00
    X0000024  OBJ        1.000000000000e+00
    X0000025  C0000048  -1.000000000000e+00
    X0000025  C0000049  -1.000000000000e+00
    X0000025  OBJ        1.000000000000e+00
    X0000026  C0000050  -1.000000000000e+00
    X0000026  C0000051  -1.000000000000e+00
    X0000026  OBJ        1.000000000000e+00
    X0000027  C0000052  -1.000000000000e+00
    X0000027  C0000053  -1.000000000000e+00
    X0000027  OBJ        1.000000000000e+00
    X0000028  C0000054  -1.000000000000e+00
    X0000028  C0000055  -1.000000000000e+00
    X0000028  OBJ        1.000000000000e+00
    X0000029  C0000056  -1.000000000000e+00
    X0000029  C0000057  -1.000000000000e+00
    X0000029  OBJ        1.000000000000e+00
    X0000030  C0000058  -1.000000000000e+00
    X0000030  C0000059  -1.000000000000e+00
    X0000030  OBJ        1.000000000000e+00
    X0000031  C0000060  -1.000000000000e+00
    X0000031  C0000061  -1.000000000000e+00
    X0000031  OBJ        1.000000000000e+00
    MARK      'MARKER'                 'INTORG'
    X0000032  C0000000  -2.594299926758e+02
    X0000032  C0000001   2.594299926758e+02
    X0000032  C0000062   2.594299926758e+02
    MARK      'MARKER'                 'INTEND'
    MARK      'MARKER'                 'INTORG'
    X0000033  C0000002  -4.756000137329e+01
    X0000033  C0000003   4.756000137329e+01
    X0000033  C0000062   4.756000137329e+01
    MARK      'MARKER'                 'INTEND'
    MARK      'MARKER'                 'INTORG'
    X0000034  C0000004  -2.011599975586e+03
    X0000034  C0000005   2.011599975586e+03
    X0000034  C0000062   2.011599975586e+03
    MARK      'MARKER'                 'INTEND'
    MARK      'MARKER'                 'INTORG'
    X0000035  C0000006  -2.532700042725e+02
    X0000035  C0000007   2.532700042725e+02
    X0000035  C0000062   2.532700042725e+02
    MARK      'MARKER'                 'INTEND'
    MARK      'MARKER'                 'INTORG'
    X0000036  C0000008  -1.415800018311e+02
    X0000036  C0000009   1.415800018311e+02
    X0000036  C0000062   1.415800018311e+02
    MARK      'MARKER'                 'INTEND'
    MARK      'MARKER'                 'INTORG'
    X0000037  C0000010  -1.980000000000e+02
    X0000037  C0000011   1.980000000000e+02
    X0000037  C0000062   1.980000000000e+02
    MARK      'MARKER'                 'INTEND'
    MARK      'MARKER'                 'INTORG'
    X0000038  C0000012  -2.225000000000e+01
    X0000038  C0000013   2.225000000000e+01
    X0000038  C0000062   2.225000000000e+01
    MARK      'MARKER'                 'INTEND'
    MARK      'MARKER'                 'INTORG'
    X0000039  C0000014  -1.012399978638e+02
    X0000039  C0000015   1.012399978638e+02
    X0000039  C0000062   1.012399978638e+02
    MARK      'MARKER'                 'INTEND'
    MARK      'MARKER'                 'INTORG'
    X0000040  C0000016  -1.688300018311e+02
    X0000040  C0000017   1.688300018311e+02
    X0000040  C0000062   1.688300018311e+02
    MARK      'MARKER'                 'INTEND'
    MARK      'MARKER'                 'INTORG'
    X0000041  C0000018  -1.186510009766e+03
    X0000041  C0000019   1.186510009766e+03
    X0000041  C0000062   1.186510009766e+03
    MARK      'MARKER'                 'INTEND'
    MARK      'MARKER'                 'INTORG'
    X0000042  C0000020  -4.209000015259e+01
    X0000042  C0000021   4.209000015259e+01
    X0000042  C0000062   4.209000015259e+01
    MARK      'MARKER'                 'INTEND'
    MARK      'MARKER'                 'INTORG'
    X0000043  C0000022  -5.840000152588e+01
    X0000043  C0000023   5.840000152588e+01
    X0000043  C0000062   5.840000152588e+01
    MARK      'MARKER'                 'INTEND'
    MARK      'MARKER'                 'INTORG'
    X0000044  C0000024  -8.760000228882e+00
    X0000044  C0000025   8.760000228882e+00
    X0000044  C0000062   8.760000228882e+00
    MARK      'MARKER'                 'INTEND'
    MARK      'MARKER'                 'INTORG'
    X0000045  C0000026  -2.562200012207e+02
    X0000045  C0000027   2.562200012207e+02
    X0000045  C0000062   2.562200012207e+02
    MARK      'MARKER'                 'INTEND'
    MARK      'MARKER'                 'INTORG'
    X0000046  C0000028   nan
    X0000046  C0000029   nan
    X0000046  C0000062   nan
    MARK      'MARKER'                 'INTEND'
    MARK      'MARKER'                 'INTORG'
    X0000047  C0000030  -2.586799926758e+02
    X0000047  C0000031   2.586799926758e+02
    X0000047  C0000062   2.586799926758e+02
    MARK      'MARKER'                 'INTEND'
    MARK      'MARKER'                 'INTORG'
    X0000048  C0000032  -1.634900054932e+02
    X0000048  C0000033   1.634900054932e+02
    X0000048  C0000062   1.634900054932e+02
    MARK      'MARKER'                 'INTEND'
    MARK      'MARKER'                 'INTORG'
    X0000049  C0000034  -4.654000091553e+01
    X0000049  C0000035   4.654000091553e+01
    X0000049  C0000062   4.654000091553e+01
    MARK      'MARKER'                 'INTEND'
    MARK      'MARKER'                 'INTORG'
    X0000050  C0000036  -3.722799987793e+02
    X0000050  C0000037   3.722799987793e+02
    X0000050  C0000062   3.722799987793e+02
    MARK      'MARKER'                 'INTEND'
    MARK      'MARKER'                 'INTORG'
    X0000051  C0000038  -2.590299987793e+02
    X0000051  C0000039   2.590299987793e+02
    X0000051  C0000062   2.590299987793e+02
    MARK      'MARKER'                 'INTEND'
    MARK      'MARKER'                 'INTORG'
    X0000052  C0000040  -1.963999938965e+02
    X0000052  C0000041   1.963999938965e+02
    X0000052  C0000062   1.963999938965e+02
    MARK      'MARKER'                 'INTEND'
    MARK      'MARKER'                 'INTORG'
    X0000053  C0000042  -3.785400085449e+02
    X0000053  C0000043   3.785400085449e+02
    X0000053  C0000062   3.785400085449e+02
    MARK      'MARKER'                 'INTEND'
    MARK      'MARKER'                 'INTORG'
    X0000054  C0000044  -2.651300048828e+02
    X0000054  C0000045   2.651300048828e+02
    X0000054  C0000062   2.651300048828e+02
    MARK      'MARKER'                 'INTEND'
    MARK      'MARKER'                 'INTORG'
    X0000055  C0000046  -5.031000137329e+01
    X0000055  C0000047   5.031000137329e+01
    X0000055  C0000062   5.031000137329e+01
    MARK      'MARKER'                 'INTEND'
    MARK      'MARKER'                 'INTORG'
    X0000056  C0000048  -5.454500122070e+02
    X0000056  C0000049   5.454500122070e+02
    X0000056  C0000062   5.454500122070e+02
    MARK      'MARKER'                 'INTEND'
    MARK      'MARKER'                 'INTORG'
    X0000057  C0000050  -2.447999954224e+01
    X0000057  C0000051   2.447999954224e+01
    X0000057  C0000062   2.447999954224e+01
    MARK      'MARKER'                 'INTEND'
    MARK      'MARKER'                 'INTORG'
    X0000058  C0000052  -2.573999977112e+01
    X0000058  C0000053   2.573999977112e+01
    X0000058  C0000062   2.573999977112e+01
    MARK      'MARKER'                 'INTEND'
    MARK      'MARKER'                 'INTORG'
    X0000059  C0000054  -2.480399932861e+02
    X0000059  C0000055   2.480399932861e+02
    X0000059  C0000062   2.480399932861e+02
    MARK      'MARKER'                 'INTEND'
    MARK      'MARKER'                 'INTORG'
    X0000060  C0000056  -1.685899963379e+02
    X0000060  C0000057   1.685899963379e+02
    X0000060  C0000062   1.685899963379e+02
    MARK      'MARKER'                 'INTEND'
    MARK      'MARKER'                 'INTORG'
    X0000061  C0000058  -6.084999847412e+01
    X0000061  C0000059   6.084999847412e+01
    X0000061  C0000062   6.084999847412e+01
    MARK      'MARKER'                 'INTEND'
    MARK      'MARKER'                 'INTORG'
    X0000062  C0000060  -3.779999923706e+01
    X0000062  C0000061   3.779999923706e+01
    X0000062  C0000062   3.779999923706e+01
    MARK      'MARKER'                 'INTEND'
RHS
    RHS       C0000000  -9.677419354839e+02
    RHS       C0000001   9.677419354839e+02
    RHS       C0000002  -9.677419354839e+02
    RHS       C0000003   9.677419354839e+02
    RHS       C0000004  -9.677419354839e+02
    RHS       C0000005   9.677419354839e+02
    RHS       C0000006  -9.677419354839e+02
    RHS       C0000007   9.677419354839e+02
    RHS       C0000008  -9.677419354839e+02
    RHS       C0000009   9.677419354839e+02
    RHS       C0000010  -9.677419354839e+02
    RHS       C0000011   9.677419354839e+02
    RHS       C0000012  -9.677419354839e+02
    RHS       C0000013   9.677419354839e+02
    RHS       C0000014  -9.677419354839e+02
    RHS       C0000015   9.677419354839e+02
    RHS       C0000016  -9.677419354839e+02
    RHS       C0000017   9.677419354839e+02
    RHS       C0000018  -9.677419354839e+02
    RHS       C0000019   9.677419354839e+02
    RHS       C0000020  -9.677419354839e+02
    RHS       C0000021   9.677419354839e+02
    RHS       C0000022  -9.677419354839e+02
    RHS       C0000023   9.677419354839e+02
    RHS       C0000024  -9.677419354839e+02
    RHS       C0000025   9.677419354839e+02
    RHS       C0000026  -9.677419354839e+02
    RHS       C0000027   9.677419354839e+02
    RHS       C0000028   nan
    RHS       C0000029   nan
    RHS       C0000030  -9.677419354839e+02
    RHS       C0000031   9.677419354839e+02
    RHS       C0000032  -9.677419354839e+02
    RHS       C0000033   9.677419354839e+02
    RHS       C0000034  -9.677419354839e+02
    RHS       C0000035   9.677419354839e+02
    RHS       C0000036  -9.677419354839e+02
    RHS       C0000037   9.677419354839e+02
    RHS       C0000038  -9.677419354839e+02
    RHS       C0000039   9.677419354839e+02
    RHS       C0000040  -9.677419354839e+02
    RHS       C0000041   9.677419354839e+02
    RHS       C0000042  -9.677419354839e+02
    RHS       C0000043   9.677419354839e+02
    RHS       C0000044  -9.677419354839e+02
    RHS       C0000045   9.677419354839e+02
    RHS       C0000046  -9.677419354839e+02
    RHS       C0000047   9.677419354839e+02
    RHS       C0000048  -9.677419354839e+02
    RHS       C0000049   9.677419354839e+02
    RHS       C0000050  -9.677419354839e+02
    RHS       C0000051   9.677419354839e+02
    RHS       C0000052  -9.677419354839e+02
    RHS       C0000053   9.677419354839e+02
    RHS       C0000054  -9.677419354839e+02
    RHS       C0000055   9.677419354839e+02
    RHS       C0000056  -9.677419354839e+02
    RHS       C0000057   9.677419354839e+02
    RHS       C0000058  -9.677419354839e+02
    RHS       C0000059   9.677419354839e+02
    RHS       C0000060  -9.677419354839e+02
    RHS       C0000061   9.677419354839e+02
    RHS       C0000062   nan
BOUNDS
 LO BND       X0000032   0.000000000000e+00
 LO BND       X0000033   0.000000000000e+00
 LO BND       X0000034   0.000000000000e+00
 LO BND       X0000035   0.000000000000e+00
 LO BND       X0000036   0.000000000000e+00
 LO BND       X0000037   0.000000000000e+00
 LO BND       X0000038   0.000000000000e+00
 LO BND       X0000039   0.000000000000e+00
 LO BND       X0000040   0.000000000000e+00
 LO BND       X0000041   0.000000000000e+00
 LO BND       X0000042   0.000000000000e+00
 LO BND       X0000043   0.000000000000e+00
 LO BND       X0000044   0.000000000000e+00
 LO BND       X0000045   0.000000000000e+00
 LO BND       X0000046   0.000000000000e+00
 LO BND       X0000047   0.000000000000e+00
 LO BND       X0000048   0.000000000000e+00
 LO BND       X0000049   0.000000000000e+00
 LO BND       X0000050   0.000000000000e+00
 LO BND       X0000051   0.000000000000e+00
 LO BND       X0000052   0.000000000000e+00
 LO BND       X0000053   0.000000000000e+00
 LO BND       X0000054   0.000000000000e+00
 LO BND       X0000055   0.000000000000e+00
 LO BND       X0000056   0.000000000000e+00
 LO BND       X0000057   0.000000000000e+00
 LO BND       X0000058   0.000000000000e+00
 LO BND       X0000059   0.000000000000e+00
 LO BND       X0000060   0.000000000000e+00
 LO BND       X0000061   0.000000000000e+00
 LO BND       X0000062   0.000000000000e+00
ENDATA
